(set-info :category "industrial")
(set-info :status sat)
(declare-fun x00 () (_ BitVec 8))
(declare-fun x03 () (_ BitVec 8))
(declare-fun x04 () (_ BitVec 8))
(declare-fun x06 () (_ BitVec 8))
(declare-fun x07 () (_ BitVec 8))
(declare-fun x08 () (_ BitVec 8))
(declare-fun x10 () (_ BitVec 8))
(declare-fun x12 () (_ BitVec 8))
(declare-fun x15 () (_ BitVec 8))
(declare-fun x16 () (_ BitVec 8))
(declare-fun x17 () (_ BitVec 8))
(declare-fun x21 () (_ BitVec 8))
(declare-fun x22 () (_ BitVec 8))
(declare-fun x23 () (_ BitVec 8))
(declare-fun x26 () (_ BitVec 8))
(declare-fun x31 () (_ BitVec 8))
(declare-fun x32 () (_ BitVec 8))
(declare-fun x34 () (_ BitVec 8))
(declare-fun x37 () (_ BitVec 8))
(declare-fun x38 () (_ BitVec 8))
(declare-fun x41 () (_ BitVec 8))
(declare-fun x42 () (_ BitVec 8))
(declare-fun x45 () (_ BitVec 8))
(declare-fun x46 () (_ BitVec 8))
(declare-fun x47 () (_ BitVec 8))
(declare-fun x48 () (_ BitVec 8))
(declare-fun x50 () (_ BitVec 8))
(declare-fun x51 () (_ BitVec 8))
(declare-fun x53 () (_ BitVec 8))
(declare-fun x54 () (_ BitVec 8))
(declare-fun x55 () (_ BitVec 8))
(declare-fun x58 () (_ BitVec 8))
(declare-fun x62 () (_ BitVec 8))
(declare-fun x63 () (_ BitVec 8))
(declare-fun x65 () (_ BitVec 8))
(declare-fun x66 () (_ BitVec 8))
(declare-fun x67 () (_ BitVec 8))
(declare-fun x70 () (_ BitVec 8))
(declare-fun x71 () (_ BitVec 8))
(declare-fun x73 () (_ BitVec 8))
(declare-fun x75 () (_ BitVec 8))
(declare-fun x76 () (_ BitVec 8))
(declare-fun x78 () (_ BitVec 8))
(declare-fun x80 () (_ BitVec 8))
(declare-fun x81 () (_ BitVec 8))
(declare-fun x83 () (_ BitVec 8))
(declare-fun x86 () (_ BitVec 8))
(declare-fun x87 () (_ BitVec 8))
(assert (bvult x00 (_ bv9 8)))
(assert (bvult x03 (_ bv9 8)))
(assert (bvult x04 (_ bv9 8)))
(assert (bvult x06 (_ bv9 8)))
(assert (bvult x07 (_ bv9 8)))
(assert (bvult x08 (_ bv9 8)))
(assert (bvult x10 (_ bv9 8)))
(assert (bvult x12 (_ bv9 8)))
(assert (bvult x15 (_ bv9 8)))
(assert (bvult x16 (_ bv9 8)))
(assert (bvult x17 (_ bv9 8)))
(assert (bvult x21 (_ bv9 8)))
(assert (bvult x22 (_ bv9 8)))
(assert (bvult x23 (_ bv9 8)))
(assert (bvult x26 (_ bv9 8)))
(assert (bvult x31 (_ bv9 8)))
(assert (bvult x32 (_ bv9 8)))
(assert (bvult x34 (_ bv9 8)))
(assert (bvult x37 (_ bv9 8)))
(assert (bvult x38 (_ bv9 8)))
(assert (bvult x41 (_ bv9 8)))
(assert (bvult x42 (_ bv9 8)))
(assert (bvult x45 (_ bv9 8)))
(assert (bvult x46 (_ bv9 8)))
(assert (bvult x47 (_ bv9 8)))
(assert (bvult x48 (_ bv9 8)))
(assert (bvult x50 (_ bv9 8)))
(assert (bvult x51 (_ bv9 8)))
(assert (bvult x53 (_ bv9 8)))
(assert (bvult x54 (_ bv9 8)))
(assert (bvult x55 (_ bv9 8)))
(assert (bvult x58 (_ bv9 8)))
(assert (bvult x62 (_ bv9 8)))
(assert (bvult x63 (_ bv9 8)))
(assert (bvult x65 (_ bv9 8)))
(assert (bvult x66 (_ bv9 8)))
(assert (bvult x67 (_ bv9 8)))
(assert (bvult x70 (_ bv9 8)))
(assert (bvult x71 (_ bv9 8)))
(assert (bvult x73 (_ bv9 8)))
(assert (bvult x75 (_ bv9 8)))
(assert (bvult x76 (_ bv9 8)))
(assert (bvult x78 (_ bv9 8)))
(assert (bvult x80 (_ bv9 8)))
(assert (bvult x81 (_ bv9 8)))
(assert (bvult x83 (_ bv9 8)))
(assert (bvult x86 (_ bv9 8)))
(assert (bvult x87 (_ bv9 8)))
(assert (not (= x00 (_ bv3 8))))
(assert (not (= x00 (_ bv2 8))))
(assert (not (= x00 x03)))
(assert (not (= x00 x04)))
(assert (not (= x00 (_ bv8 8))))
(assert (not (= x00 x06)))
(assert (not (= x00 x07)))
(assert (not (= x00 x08)))
(assert (not (= (_ bv3 8) (_ bv2 8))))
(assert (not (= (_ bv3 8) x03)))
(assert (not (= (_ bv3 8) x04)))
(assert (not (= (_ bv3 8) (_ bv8 8))))
(assert (not (= (_ bv3 8) x06)))
(assert (not (= (_ bv3 8) x07)))
(assert (not (= (_ bv3 8) x08)))
(assert (not (= (_ bv2 8) x03)))
(assert (not (= (_ bv2 8) x04)))
(assert (not (= (_ bv2 8) (_ bv8 8))))
(assert (not (= (_ bv2 8) x06)))
(assert (not (= (_ bv2 8) x07)))
(assert (not (= (_ bv2 8) x08)))
(assert (not (= x03 x04)))
(assert (not (= x03 (_ bv8 8))))
(assert (not (= x03 x06)))
(assert (not (= x03 x07)))
(assert (not (= x03 x08)))
(assert (not (= x04 (_ bv8 8))))
(assert (not (= x04 x06)))
(assert (not (= x04 x07)))
(assert (not (= x04 x08)))
(assert (not (= (_ bv8 8) x06)))
(assert (not (= (_ bv8 8) x07)))
(assert (not (= (_ bv8 8) x08)))
(assert (not (= x06 x07)))
(assert (not (= x06 x08)))
(assert (not (= x07 x08)))
(assert (not (= x10 (_ bv6 8))))
(assert (not (= x10 x12)))
(assert (not (= x10 (_ bv2 8))))
(assert (not (= x10 (_ bv4 8))))
(assert (not (= x10 x15)))
(assert (not (= x10 x16)))
(assert (not (= x10 x17)))
(assert (not (= x10 (_ bv9 8))))
(assert (not (= (_ bv6 8) x12)))
(assert (not (= (_ bv6 8) (_ bv2 8))))
(assert (not (= (_ bv6 8) (_ bv4 8))))
(assert (not (= (_ bv6 8) x15)))
(assert (not (= (_ bv6 8) x16)))
(assert (not (= (_ bv6 8) x17)))
(assert (not (= (_ bv6 8) (_ bv9 8))))
(assert (not (= x12 (_ bv2 8))))
(assert (not (= x12 (_ bv4 8))))
(assert (not (= x12 x15)))
(assert (not (= x12 x16)))
(assert (not (= x12 x17)))
(assert (not (= x12 (_ bv9 8))))
(assert (not (= (_ bv2 8) (_ bv4 8))))
(assert (not (= (_ bv2 8) x15)))
(assert (not (= (_ bv2 8) x16)))
(assert (not (= (_ bv2 8) x17)))
(assert (not (= (_ bv2 8) (_ bv9 8))))
(assert (not (= (_ bv4 8) x15)))
(assert (not (= (_ bv4 8) x16)))
(assert (not (= (_ bv4 8) x17)))
(assert (not (= (_ bv4 8) (_ bv9 8))))
(assert (not (= x15 x16)))
(assert (not (= x15 x17)))
(assert (not (= x15 (_ bv9 8))))
(assert (not (= x16 x17)))
(assert (not (= x16 (_ bv9 8))))
(assert (not (= x17 (_ bv9 8))))
(assert (not (= (_ bv9 8) x21)))
(assert (not (= (_ bv9 8) x22)))
(assert (not (= (_ bv9 8) x23)))
(assert (not (= (_ bv9 8) (_ bv6 8))))
(assert (not (= (_ bv9 8) (_ bv7 8))))
(assert (not (= (_ bv9 8) x26)))
(assert (not (= (_ bv9 8) (_ bv3 8))))
(assert (not (= (_ bv9 8) (_ bv4 8))))
(assert (not (= x21 x22)))
(assert (not (= x21 x23)))
(assert (not (= x21 (_ bv6 8))))
(assert (not (= x21 (_ bv7 8))))
(assert (not (= x21 x26)))
(assert (not (= x21 (_ bv3 8))))
(assert (not (= x21 (_ bv4 8))))
(assert (not (= x22 x23)))
(assert (not (= x22 (_ bv6 8))))
(assert (not (= x22 (_ bv7 8))))
(assert (not (= x22 x26)))
(assert (not (= x22 (_ bv3 8))))
(assert (not (= x22 (_ bv4 8))))
(assert (not (= x23 (_ bv6 8))))
(assert (not (= x23 (_ bv7 8))))
(assert (not (= x23 x26)))
(assert (not (= x23 (_ bv3 8))))
(assert (not (= x23 (_ bv4 8))))
(assert (not (= (_ bv6 8) (_ bv7 8))))
(assert (not (= (_ bv6 8) x26)))
(assert (not (= (_ bv6 8) (_ bv3 8))))
(assert (not (= (_ bv6 8) (_ bv4 8))))
(assert (not (= (_ bv7 8) x26)))
(assert (not (= (_ bv7 8) (_ bv3 8))))
(assert (not (= (_ bv7 8) (_ bv4 8))))
(assert (not (= x26 (_ bv3 8))))
(assert (not (= x26 (_ bv4 8))))
(assert (not (= (_ bv3 8) (_ bv4 8))))
(assert (not (= (_ bv5 8) x31)))
(assert (not (= (_ bv5 8) x32)))
(assert (not (= (_ bv5 8) (_ bv6 8))))
(assert (not (= (_ bv5 8) x34)))
(assert (not (= (_ bv5 8) (_ bv4 8))))
(assert (not (= (_ bv5 8) (_ bv9 8))))
(assert (not (= (_ bv5 8) x37)))
(assert (not (= (_ bv5 8) x38)))
(assert (not (= x31 x32)))
(assert (not (= x31 (_ bv6 8))))
(assert (not (= x31 x34)))
(assert (not (= x31 (_ bv4 8))))
(assert (not (= x31 (_ bv9 8))))
(assert (not (= x31 x37)))
(assert (not (= x31 x38)))
(assert (not (= x32 (_ bv6 8))))
(assert (not (= x32 x34)))
(assert (not (= x32 (_ bv4 8))))
(assert (not (= x32 (_ bv9 8))))
(assert (not (= x32 x37)))
(assert (not (= x32 x38)))
(assert (not (= (_ bv6 8) x34)))
(assert (not (= (_ bv6 8) (_ bv4 8))))
(assert (not (= (_ bv6 8) (_ bv9 8))))
(assert (not (= (_ bv6 8) x37)))
(assert (not (= (_ bv6 8) x38)))
(assert (not (= x34 (_ bv4 8))))
(assert (not (= x34 (_ bv9 8))))
(assert (not (= x34 x37)))
(assert (not (= x34 x38)))
(assert (not (= (_ bv4 8) (_ bv9 8))))
(assert (not (= (_ bv4 8) x37)))
(assert (not (= (_ bv4 8) x38)))
(assert (not (= (_ bv9 8) x37)))
(assert (not (= (_ bv9 8) x38)))
(assert (not (= x37 x38)))
(assert (not (= (_ bv7 8) x41)))
(assert (not (= (_ bv7 8) x42)))
(assert (not (= (_ bv7 8) (_ bv5 8))))
(assert (not (= (_ bv7 8) (_ bv2 8))))
(assert (not (= (_ bv7 8) x45)))
(assert (not (= (_ bv7 8) x46)))
(assert (not (= (_ bv7 8) x47)))
(assert (not (= (_ bv7 8) x48)))
(assert (not (= x41 x42)))
(assert (not (= x41 (_ bv5 8))))
(assert (not (= x41 (_ bv2 8))))
(assert (not (= x41 x45)))
(assert (not (= x41 x46)))
(assert (not (= x41 x47)))
(assert (not (= x41 x48)))
(assert (not (= x42 (_ bv5 8))))
(assert (not (= x42 (_ bv2 8))))
(assert (not (= x42 x45)))
(assert (not (= x42 x46)))
(assert (not (= x42 x47)))
(assert (not (= x42 x48)))
(assert (not (= (_ bv5 8) (_ bv2 8))))
(assert (not (= (_ bv5 8) x45)))
(assert (not (= (_ bv5 8) x46)))
(assert (not (= (_ bv5 8) x47)))
(assert (not (= (_ bv5 8) x48)))
(assert (not (= (_ bv2 8) x45)))
(assert (not (= (_ bv2 8) x46)))
(assert (not (= (_ bv2 8) x47)))
(assert (not (= (_ bv2 8) x48)))
(assert (not (= x45 x46)))
(assert (not (= x45 x47)))
(assert (not (= x45 x48)))
(assert (not (= x46 x47)))
(assert (not (= x46 x48)))
(assert (not (= x47 x48)))
(assert (not (= x50 x51)))
(assert (not (= x50 (_ bv3 8))))
(assert (not (= x50 x53)))
(assert (not (= x50 x54)))
(assert (not (= x50 x55)))
(assert (not (= x50 (_ bv1 8))))
(assert (not (= x50 (_ bv2 8))))
(assert (not (= x50 x58)))
(assert (not (= x51 (_ bv3 8))))
(assert (not (= x51 x53)))
(assert (not (= x51 x54)))
(assert (not (= x51 x55)))
(assert (not (= x51 (_ bv1 8))))
(assert (not (= x51 (_ bv2 8))))
(assert (not (= x51 x58)))
(assert (not (= (_ bv3 8) x53)))
(assert (not (= (_ bv3 8) x54)))
(assert (not (= (_ bv3 8) x55)))
(assert (not (= (_ bv3 8) (_ bv1 8))))
(assert (not (= (_ bv3 8) (_ bv2 8))))
(assert (not (= (_ bv3 8) x58)))
(assert (not (= x53 x54)))
(assert (not (= x53 x55)))
(assert (not (= x53 (_ bv1 8))))
(assert (not (= x53 (_ bv2 8))))
(assert (not (= x53 x58)))
(assert (not (= x54 x55)))
(assert (not (= x54 (_ bv1 8))))
(assert (not (= x54 (_ bv2 8))))
(assert (not (= x54 x58)))
(assert (not (= x55 (_ bv1 8))))
(assert (not (= x55 (_ bv2 8))))
(assert (not (= x55 x58)))
(assert (not (= (_ bv1 8) (_ bv2 8))))
(assert (not (= (_ bv1 8) x58)))
(assert (not (= (_ bv2 8) x58)))
(assert (not (= (_ bv8 8) (_ bv1 8))))
(assert (not (= (_ bv8 8) x62)))
(assert (not (= (_ bv8 8) x63)))
(assert (not (= (_ bv8 8) (_ bv7 8))))
(assert (not (= (_ bv8 8) x65)))
(assert (not (= (_ bv8 8) x66)))
(assert (not (= (_ bv8 8) x67)))
(assert (not (= (_ bv8 8) (_ bv3 8))))
(assert (not (= (_ bv1 8) x62)))
(assert (not (= (_ bv1 8) x63)))
(assert (not (= (_ bv1 8) (_ bv7 8))))
(assert (not (= (_ bv1 8) x65)))
(assert (not (= (_ bv1 8) x66)))
(assert (not (= (_ bv1 8) x67)))
(assert (not (= (_ bv1 8) (_ bv3 8))))
(assert (not (= x62 x63)))
(assert (not (= x62 (_ bv7 8))))
(assert (not (= x62 x65)))
(assert (not (= x62 x66)))
(assert (not (= x62 x67)))
(assert (not (= x62 (_ bv3 8))))
(assert (not (= x63 (_ bv7 8))))
(assert (not (= x63 x65)))
(assert (not (= x63 x66)))
(assert (not (= x63 x67)))
(assert (not (= x63 (_ bv3 8))))
(assert (not (= (_ bv7 8) x65)))
(assert (not (= (_ bv7 8) x66)))
(assert (not (= (_ bv7 8) x67)))
(assert (not (= (_ bv7 8) (_ bv3 8))))
(assert (not (= x65 x66)))
(assert (not (= x65 x67)))
(assert (not (= x65 (_ bv3 8))))
(assert (not (= x66 x67)))
(assert (not (= x66 (_ bv3 8))))
(assert (not (= x67 (_ bv3 8))))
(assert (not (= x70 x71)))
(assert (not (= x70 (_ bv5 8))))
(assert (not (= x70 x73)))
(assert (not (= x70 (_ bv1 8))))
(assert (not (= x70 x75)))
(assert (not (= x70 x76)))
(assert (not (= x70 (_ bv7 8))))
(assert (not (= x70 x78)))
(assert (not (= x71 (_ bv5 8))))
(assert (not (= x71 x73)))
(assert (not (= x71 (_ bv1 8))))
(assert (not (= x71 x75)))
(assert (not (= x71 x76)))
(assert (not (= x71 (_ bv7 8))))
(assert (not (= x71 x78)))
(assert (not (= (_ bv5 8) x73)))
(assert (not (= (_ bv5 8) (_ bv1 8))))
(assert (not (= (_ bv5 8) x75)))
(assert (not (= (_ bv5 8) x76)))
(assert (not (= (_ bv5 8) (_ bv7 8))))
(assert (not (= (_ bv5 8) x78)))
(assert (not (= x73 (_ bv1 8))))
(assert (not (= x73 x75)))
(assert (not (= x73 x76)))
(assert (not (= x73 (_ bv7 8))))
(assert (not (= x73 x78)))
(assert (not (= (_ bv1 8) x75)))
(assert (not (= (_ bv1 8) x76)))
(assert (not (= (_ bv1 8) (_ bv7 8))))
(assert (not (= (_ bv1 8) x78)))
(assert (not (= x75 x76)))
(assert (not (= x75 (_ bv7 8))))
(assert (not (= x75 x78)))
(assert (not (= x76 (_ bv7 8))))
(assert (not (= x76 x78)))
(assert (not (= (_ bv7 8) x78)))
(assert (not (= x80 x81)))
(assert (not (= x80 (_ bv4 8))))
(assert (not (= x80 x83)))
(assert (not (= x80 (_ bv9 8))))
(assert (not (= x80 (_ bv5 8))))
(assert (not (= x80 x86)))
(assert (not (= x80 x87)))
(assert (not (= x80 (_ bv8 8))))
(assert (not (= x81 (_ bv4 8))))
(assert (not (= x81 x83)))
(assert (not (= x81 (_ bv9 8))))
(assert (not (= x81 (_ bv5 8))))
(assert (not (= x81 x86)))
(assert (not (= x81 x87)))
(assert (not (= x81 (_ bv8 8))))
(assert (not (= (_ bv4 8) x83)))
(assert (not (= (_ bv4 8) (_ bv9 8))))
(assert (not (= (_ bv4 8) (_ bv5 8))))
(assert (not (= (_ bv4 8) x86)))
(assert (not (= (_ bv4 8) x87)))
(assert (not (= (_ bv4 8) (_ bv8 8))))
(assert (not (= x83 (_ bv9 8))))
(assert (not (= x83 (_ bv5 8))))
(assert (not (= x83 x86)))
(assert (not (= x83 x87)))
(assert (not (= x83 (_ bv8 8))))
(assert (not (= (_ bv9 8) (_ bv5 8))))
(assert (not (= (_ bv9 8) x86)))
(assert (not (= (_ bv9 8) x87)))
(assert (not (= (_ bv9 8) (_ bv8 8))))
(assert (not (= (_ bv5 8) x86)))
(assert (not (= (_ bv5 8) x87)))
(assert (not (= (_ bv5 8) (_ bv8 8))))
(assert (not (= x86 x87)))
(assert (not (= x86 (_ bv8 8))))
(assert (not (= x87 (_ bv8 8))))
(assert (not (= x00 x10)))
(assert (not (= x00 (_ bv9 8))))
(assert (not (= x00 (_ bv5 8))))
(assert (not (= x00 (_ bv7 8))))
(assert (not (= x00 x50)))
(assert (not (= x00 (_ bv8 8))))
(assert (not (= x00 x70)))
(assert (not (= x00 x80)))
(assert (not (= x10 (_ bv9 8))))
(assert (not (= x10 (_ bv5 8))))
(assert (not (= x10 (_ bv7 8))))
(assert (not (= x10 x50)))
(assert (not (= x10 (_ bv8 8))))
(assert (not (= x10 x70)))
(assert (not (= x10 x80)))
(assert (not (= (_ bv9 8) (_ bv5 8))))
(assert (not (= (_ bv9 8) (_ bv7 8))))
(assert (not (= (_ bv9 8) x50)))
(assert (not (= (_ bv9 8) (_ bv8 8))))
(assert (not (= (_ bv9 8) x70)))
(assert (not (= (_ bv9 8) x80)))
(assert (not (= (_ bv5 8) (_ bv7 8))))
(assert (not (= (_ bv5 8) x50)))
(assert (not (= (_ bv5 8) (_ bv8 8))))
(assert (not (= (_ bv5 8) x70)))
(assert (not (= (_ bv5 8) x80)))
(assert (not (= (_ bv7 8) x50)))
(assert (not (= (_ bv7 8) (_ bv8 8))))
(assert (not (= (_ bv7 8) x70)))
(assert (not (= (_ bv7 8) x80)))
(assert (not (= x50 (_ bv8 8))))
(assert (not (= x50 x70)))
(assert (not (= x50 x80)))
(assert (not (= (_ bv8 8) x70)))
(assert (not (= (_ bv8 8) x80)))
(assert (not (= x70 x80)))
(assert (not (= (_ bv3 8) (_ bv6 8))))
(assert (not (= (_ bv3 8) x21)))
(assert (not (= (_ bv3 8) x31)))
(assert (not (= (_ bv3 8) x41)))
(assert (not (= (_ bv3 8) x51)))
(assert (not (= (_ bv3 8) (_ bv1 8))))
(assert (not (= (_ bv3 8) x71)))
(assert (not (= (_ bv3 8) x81)))
(assert (not (= (_ bv6 8) x21)))
(assert (not (= (_ bv6 8) x31)))
(assert (not (= (_ bv6 8) x41)))
(assert (not (= (_ bv6 8) x51)))
(assert (not (= (_ bv6 8) (_ bv1 8))))
(assert (not (= (_ bv6 8) x71)))
(assert (not (= (_ bv6 8) x81)))
(assert (not (= x21 x31)))
(assert (not (= x21 x41)))
(assert (not (= x21 x51)))
(assert (not (= x21 (_ bv1 8))))
(assert (not (= x21 x71)))
(assert (not (= x21 x81)))
(assert (not (= x31 x41)))
(assert (not (= x31 x51)))
(assert (not (= x31 (_ bv1 8))))
(assert (not (= x31 x71)))
(assert (not (= x31 x81)))
(assert (not (= x41 x51)))
(assert (not (= x41 (_ bv1 8))))
(assert (not (= x41 x71)))
(assert (not (= x41 x81)))
(assert (not (= x51 (_ bv1 8))))
(assert (not (= x51 x71)))
(assert (not (= x51 x81)))
(assert (not (= (_ bv1 8) x71)))
(assert (not (= (_ bv1 8) x81)))
(assert (not (= x71 x81)))
(assert (not (= (_ bv2 8) x12)))
(assert (not (= (_ bv2 8) x22)))
(assert (not (= (_ bv2 8) x32)))
(assert (not (= (_ bv2 8) x42)))
(assert (not (= (_ bv2 8) (_ bv3 8))))
(assert (not (= (_ bv2 8) x62)))
(assert (not (= (_ bv2 8) (_ bv5 8))))
(assert (not (= (_ bv2 8) (_ bv4 8))))
(assert (not (= x12 x22)))
(assert (not (= x12 x32)))
(assert (not (= x12 x42)))
(assert (not (= x12 (_ bv3 8))))
(assert (not (= x12 x62)))
(assert (not (= x12 (_ bv5 8))))
(assert (not (= x12 (_ bv4 8))))
(assert (not (= x22 x32)))
(assert (not (= x22 x42)))
(assert (not (= x22 (_ bv3 8))))
(assert (not (= x22 x62)))
(assert (not (= x22 (_ bv5 8))))
(assert (not (= x22 (_ bv4 8))))
(assert (not (= x32 x42)))
(assert (not (= x32 (_ bv3 8))))
(assert (not (= x32 x62)))
(assert (not (= x32 (_ bv5 8))))
(assert (not (= x32 (_ bv4 8))))
(assert (not (= x42 (_ bv3 8))))
(assert (not (= x42 x62)))
(assert (not (= x42 (_ bv5 8))))
(assert (not (= x42 (_ bv4 8))))
(assert (not (= (_ bv3 8) x62)))
(assert (not (= (_ bv3 8) (_ bv5 8))))
(assert (not (= (_ bv3 8) (_ bv4 8))))
(assert (not (= x62 (_ bv5 8))))
(assert (not (= x62 (_ bv4 8))))
(assert (not (= (_ bv5 8) (_ bv4 8))))
(assert (not (= x03 (_ bv2 8))))
(assert (not (= x03 x23)))
(assert (not (= x03 (_ bv6 8))))
(assert (not (= x03 (_ bv5 8))))
(assert (not (= x03 x53)))
(assert (not (= x03 x63)))
(assert (not (= x03 x73)))
(assert (not (= x03 x83)))
(assert (not (= (_ bv2 8) x23)))
(assert (not (= (_ bv2 8) (_ bv6 8))))
(assert (not (= (_ bv2 8) (_ bv5 8))))
(assert (not (= (_ bv2 8) x53)))
(assert (not (= (_ bv2 8) x63)))
(assert (not (= (_ bv2 8) x73)))
(assert (not (= (_ bv2 8) x83)))
(assert (not (= x23 (_ bv6 8))))
(assert (not (= x23 (_ bv5 8))))
(assert (not (= x23 x53)))
(assert (not (= x23 x63)))
(assert (not (= x23 x73)))
(assert (not (= x23 x83)))
(assert (not (= (_ bv6 8) (_ bv5 8))))
(assert (not (= (_ bv6 8) x53)))
(assert (not (= (_ bv6 8) x63)))
(assert (not (= (_ bv6 8) x73)))
(assert (not (= (_ bv6 8) x83)))
(assert (not (= (_ bv5 8) x53)))
(assert (not (= (_ bv5 8) x63)))
(assert (not (= (_ bv5 8) x73)))
(assert (not (= (_ bv5 8) x83)))
(assert (not (= x53 x63)))
(assert (not (= x53 x73)))
(assert (not (= x53 x83)))
(assert (not (= x63 x73)))
(assert (not (= x63 x83)))
(assert (not (= x73 x83)))
(assert (not (= x04 (_ bv4 8))))
(assert (not (= x04 (_ bv6 8))))
(assert (not (= x04 x34)))
(assert (not (= x04 (_ bv2 8))))
(assert (not (= x04 x54)))
(assert (not (= x04 (_ bv7 8))))
(assert (not (= x04 (_ bv1 8))))
(assert (not (= x04 (_ bv9 8))))
(assert (not (= (_ bv4 8) (_ bv6 8))))
(assert (not (= (_ bv4 8) x34)))
(assert (not (= (_ bv4 8) (_ bv2 8))))
(assert (not (= (_ bv4 8) x54)))
(assert (not (= (_ bv4 8) (_ bv7 8))))
(assert (not (= (_ bv4 8) (_ bv1 8))))
(assert (not (= (_ bv4 8) (_ bv9 8))))
(assert (not (= (_ bv6 8) x34)))
(assert (not (= (_ bv6 8) (_ bv2 8))))
(assert (not (= (_ bv6 8) x54)))
(assert (not (= (_ bv6 8) (_ bv7 8))))
(assert (not (= (_ bv6 8) (_ bv1 8))))
(assert (not (= (_ bv6 8) (_ bv9 8))))
(assert (not (= x34 (_ bv2 8))))
(assert (not (= x34 x54)))
(assert (not (= x34 (_ bv7 8))))
(assert (not (= x34 (_ bv1 8))))
(assert (not (= x34 (_ bv9 8))))
(assert (not (= (_ bv2 8) x54)))
(assert (not (= (_ bv2 8) (_ bv7 8))))
(assert (not (= (_ bv2 8) (_ bv1 8))))
(assert (not (= (_ bv2 8) (_ bv9 8))))
(assert (not (= x54 (_ bv7 8))))
(assert (not (= x54 (_ bv1 8))))
(assert (not (= x54 (_ bv9 8))))
(assert (not (= (_ bv7 8) (_ bv1 8))))
(assert (not (= (_ bv7 8) (_ bv9 8))))
(assert (not (= (_ bv1 8) (_ bv9 8))))
(assert (not (= (_ bv8 8) x15)))
(assert (not (= (_ bv8 8) (_ bv7 8))))
(assert (not (= (_ bv8 8) (_ bv4 8))))
(assert (not (= (_ bv8 8) x45)))
(assert (not (= (_ bv8 8) x55)))
(assert (not (= (_ bv8 8) x65)))
(assert (not (= (_ bv8 8) x75)))
(assert (not (= (_ bv8 8) (_ bv5 8))))
(assert (not (= x15 (_ bv7 8))))
(assert (not (= x15 (_ bv4 8))))
(assert (not (= x15 x45)))
(assert (not (= x15 x55)))
(assert (not (= x15 x65)))
(assert (not (= x15 x75)))
(assert (not (= x15 (_ bv5 8))))
(assert (not (= (_ bv7 8) (_ bv4 8))))
(assert (not (= (_ bv7 8) x45)))
(assert (not (= (_ bv7 8) x55)))
(assert (not (= (_ bv7 8) x65)))
(assert (not (= (_ bv7 8) x75)))
(assert (not (= (_ bv7 8) (_ bv5 8))))
(assert (not (= (_ bv4 8) x45)))
(assert (not (= (_ bv4 8) x55)))
(assert (not (= (_ bv4 8) x65)))
(assert (not (= (_ bv4 8) x75)))
(assert (not (= (_ bv4 8) (_ bv5 8))))
(assert (not (= x45 x55)))
(assert (not (= x45 x65)))
(assert (not (= x45 x75)))
(assert (not (= x45 (_ bv5 8))))
(assert (not (= x55 x65)))
(assert (not (= x55 x75)))
(assert (not (= x55 (_ bv5 8))))
(assert (not (= x65 x75)))
(assert (not (= x65 (_ bv5 8))))
(assert (not (= x75 (_ bv5 8))))
(assert (not (= x06 x16)))
(assert (not (= x06 x26)))
(assert (not (= x06 (_ bv9 8))))
(assert (not (= x06 x46)))
(assert (not (= x06 (_ bv1 8))))
(assert (not (= x06 x66)))
(assert (not (= x06 x76)))
(assert (not (= x06 x86)))
(assert (not (= x16 x26)))
(assert (not (= x16 (_ bv9 8))))
(assert (not (= x16 x46)))
(assert (not (= x16 (_ bv1 8))))
(assert (not (= x16 x66)))
(assert (not (= x16 x76)))
(assert (not (= x16 x86)))
(assert (not (= x26 (_ bv9 8))))
(assert (not (= x26 x46)))
(assert (not (= x26 (_ bv1 8))))
(assert (not (= x26 x66)))
(assert (not (= x26 x76)))
(assert (not (= x26 x86)))
(assert (not (= (_ bv9 8) x46)))
(assert (not (= (_ bv9 8) (_ bv1 8))))
(assert (not (= (_ bv9 8) x66)))
(assert (not (= (_ bv9 8) x76)))
(assert (not (= (_ bv9 8) x86)))
(assert (not (= x46 (_ bv1 8))))
(assert (not (= x46 x66)))
(assert (not (= x46 x76)))
(assert (not (= x46 x86)))
(assert (not (= (_ bv1 8) x66)))
(assert (not (= (_ bv1 8) x76)))
(assert (not (= (_ bv1 8) x86)))
(assert (not (= x66 x76)))
(assert (not (= x66 x86)))
(assert (not (= x76 x86)))
(assert (not (= x07 x17)))
(assert (not (= x07 (_ bv3 8))))
(assert (not (= x07 x37)))
(assert (not (= x07 x47)))
(assert (not (= x07 (_ bv2 8))))
(assert (not (= x07 x67)))
(assert (not (= x07 (_ bv7 8))))
(assert (not (= x07 x87)))
(assert (not (= x17 (_ bv3 8))))
(assert (not (= x17 x37)))
(assert (not (= x17 x47)))
(assert (not (= x17 (_ bv2 8))))
(assert (not (= x17 x67)))
(assert (not (= x17 (_ bv7 8))))
(assert (not (= x17 x87)))
(assert (not (= (_ bv3 8) x37)))
(assert (not (= (_ bv3 8) x47)))
(assert (not (= (_ bv3 8) (_ bv2 8))))
(assert (not (= (_ bv3 8) x67)))
(assert (not (= (_ bv3 8) (_ bv7 8))))
(assert (not (= (_ bv3 8) x87)))
(assert (not (= x37 x47)))
(assert (not (= x37 (_ bv2 8))))
(assert (not (= x37 x67)))
(assert (not (= x37 (_ bv7 8))))
(assert (not (= x37 x87)))
(assert (not (= x47 (_ bv2 8))))
(assert (not (= x47 x67)))
(assert (not (= x47 (_ bv7 8))))
(assert (not (= x47 x87)))
(assert (not (= (_ bv2 8) x67)))
(assert (not (= (_ bv2 8) (_ bv7 8))))
(assert (not (= (_ bv2 8) x87)))
(assert (not (= x67 (_ bv7 8))))
(assert (not (= x67 x87)))
(assert (not (= (_ bv7 8) x87)))
(assert (not (= x08 (_ bv9 8))))
(assert (not (= x08 (_ bv4 8))))
(assert (not (= x08 x38)))
(assert (not (= x08 x48)))
(assert (not (= x08 x58)))
(assert (not (= x08 (_ bv3 8))))
(assert (not (= x08 x78)))
(assert (not (= x08 (_ bv8 8))))
(assert (not (= (_ bv9 8) (_ bv4 8))))
(assert (not (= (_ bv9 8) x38)))
(assert (not (= (_ bv9 8) x48)))
(assert (not (= (_ bv9 8) x58)))
(assert (not (= (_ bv9 8) (_ bv3 8))))
(assert (not (= (_ bv9 8) x78)))
(assert (not (= (_ bv9 8) (_ bv8 8))))
(assert (not (= (_ bv4 8) x38)))
(assert (not (= (_ bv4 8) x48)))
(assert (not (= (_ bv4 8) x58)))
(assert (not (= (_ bv4 8) (_ bv3 8))))
(assert (not (= (_ bv4 8) x78)))
(assert (not (= (_ bv4 8) (_ bv8 8))))
(assert (not (= x38 x48)))
(assert (not (= x38 x58)))
(assert (not (= x38 (_ bv3 8))))
(assert (not (= x38 x78)))
(assert (not (= x38 (_ bv8 8))))
(assert (not (= x48 x58)))
(assert (not (= x48 (_ bv3 8))))
(assert (not (= x48 x78)))
(assert (not (= x48 (_ bv8 8))))
(assert (not (= x58 (_ bv3 8))))
(assert (not (= x58 x78)))
(assert (not (= x58 (_ bv8 8))))
(assert (not (= (_ bv3 8) x78)))
(assert (not (= (_ bv3 8) (_ bv8 8))))
(assert (not (= x78 (_ bv8 8))))
(assert (not (= x00 (_ bv3 8))))
(assert (not (= x00 (_ bv2 8))))
(assert (not (= x00 x10)))
(assert (not (= x00 (_ bv6 8))))
(assert (not (= x00 x12)))
(assert (not (= x00 (_ bv9 8))))
(assert (not (= x00 x21)))
(assert (not (= x00 x22)))
(assert (not (= (_ bv3 8) (_ bv2 8))))
(assert (not (= (_ bv3 8) x10)))
(assert (not (= (_ bv3 8) (_ bv6 8))))
(assert (not (= (_ bv3 8) x12)))
(assert (not (= (_ bv3 8) (_ bv9 8))))
(assert (not (= (_ bv3 8) x21)))
(assert (not (= (_ bv3 8) x22)))
(assert (not (= (_ bv2 8) x10)))
(assert (not (= (_ bv2 8) (_ bv6 8))))
(assert (not (= (_ bv2 8) x12)))
(assert (not (= (_ bv2 8) (_ bv9 8))))
(assert (not (= (_ bv2 8) x21)))
(assert (not (= (_ bv2 8) x22)))
(assert (not (= x10 (_ bv6 8))))
(assert (not (= x10 x12)))
(assert (not (= x10 (_ bv9 8))))
(assert (not (= x10 x21)))
(assert (not (= x10 x22)))
(assert (not (= (_ bv6 8) x12)))
(assert (not (= (_ bv6 8) (_ bv9 8))))
(assert (not (= (_ bv6 8) x21)))
(assert (not (= (_ bv6 8) x22)))
(assert (not (= x12 (_ bv9 8))))
(assert (not (= x12 x21)))
(assert (not (= x12 x22)))
(assert (not (= (_ bv9 8) x21)))
(assert (not (= (_ bv9 8) x22)))
(assert (not (= x21 x22)))
(assert (not (= x03 x04)))
(assert (not (= x03 (_ bv8 8))))
(assert (not (= x03 (_ bv2 8))))
(assert (not (= x03 (_ bv4 8))))
(assert (not (= x03 x15)))
(assert (not (= x03 x23)))
(assert (not (= x03 (_ bv6 8))))
(assert (not (= x03 (_ bv7 8))))
(assert (not (= x04 (_ bv8 8))))
(assert (not (= x04 (_ bv2 8))))
(assert (not (= x04 (_ bv4 8))))
(assert (not (= x04 x15)))
(assert (not (= x04 x23)))
(assert (not (= x04 (_ bv6 8))))
(assert (not (= x04 (_ bv7 8))))
(assert (not (= (_ bv8 8) (_ bv2 8))))
(assert (not (= (_ bv8 8) (_ bv4 8))))
(assert (not (= (_ bv8 8) x15)))
(assert (not (= (_ bv8 8) x23)))
(assert (not (= (_ bv8 8) (_ bv6 8))))
(assert (not (= (_ bv8 8) (_ bv7 8))))
(assert (not (= (_ bv2 8) (_ bv4 8))))
(assert (not (= (_ bv2 8) x15)))
(assert (not (= (_ bv2 8) x23)))
(assert (not (= (_ bv2 8) (_ bv6 8))))
(assert (not (= (_ bv2 8) (_ bv7 8))))
(assert (not (= (_ bv4 8) x15)))
(assert (not (= (_ bv4 8) x23)))
(assert (not (= (_ bv4 8) (_ bv6 8))))
(assert (not (= (_ bv4 8) (_ bv7 8))))
(assert (not (= x15 x23)))
(assert (not (= x15 (_ bv6 8))))
(assert (not (= x15 (_ bv7 8))))
(assert (not (= x23 (_ bv6 8))))
(assert (not (= x23 (_ bv7 8))))
(assert (not (= (_ bv6 8) (_ bv7 8))))
(assert (not (= x06 x07)))
(assert (not (= x06 x08)))
(assert (not (= x06 x16)))
(assert (not (= x06 x17)))
(assert (not (= x06 (_ bv9 8))))
(assert (not (= x06 x26)))
(assert (not (= x06 (_ bv3 8))))
(assert (not (= x06 (_ bv4 8))))
(assert (not (= x07 x08)))
(assert (not (= x07 x16)))
(assert (not (= x07 x17)))
(assert (not (= x07 (_ bv9 8))))
(assert (not (= x07 x26)))
(assert (not (= x07 (_ bv3 8))))
(assert (not (= x07 (_ bv4 8))))
(assert (not (= x08 x16)))
(assert (not (= x08 x17)))
(assert (not (= x08 (_ bv9 8))))
(assert (not (= x08 x26)))
(assert (not (= x08 (_ bv3 8))))
(assert (not (= x08 (_ bv4 8))))
(assert (not (= x16 x17)))
(assert (not (= x16 (_ bv9 8))))
(assert (not (= x16 x26)))
(assert (not (= x16 (_ bv3 8))))
(assert (not (= x16 (_ bv4 8))))
(assert (not (= x17 (_ bv9 8))))
(assert (not (= x17 x26)))
(assert (not (= x17 (_ bv3 8))))
(assert (not (= x17 (_ bv4 8))))
(assert (not (= (_ bv9 8) x26)))
(assert (not (= (_ bv9 8) (_ bv3 8))))
(assert (not (= (_ bv9 8) (_ bv4 8))))
(assert (not (= x26 (_ bv3 8))))
(assert (not (= x26 (_ bv4 8))))
(assert (not (= (_ bv3 8) (_ bv4 8))))
(assert (not (= (_ bv5 8) x31)))
(assert (not (= (_ bv5 8) x32)))
(assert (not (= (_ bv5 8) (_ bv7 8))))
(assert (not (= (_ bv5 8) x41)))
(assert (not (= (_ bv5 8) x42)))
(assert (not (= (_ bv5 8) x50)))
(assert (not (= (_ bv5 8) x51)))
(assert (not (= (_ bv5 8) (_ bv3 8))))
(assert (not (= x31 x32)))
(assert (not (= x31 (_ bv7 8))))
(assert (not (= x31 x41)))
(assert (not (= x31 x42)))
(assert (not (= x31 x50)))
(assert (not (= x31 x51)))
(assert (not (= x31 (_ bv3 8))))
(assert (not (= x32 (_ bv7 8))))
(assert (not (= x32 x41)))
(assert (not (= x32 x42)))
(assert (not (= x32 x50)))
(assert (not (= x32 x51)))
(assert (not (= x32 (_ bv3 8))))
(assert (not (= (_ bv7 8) x41)))
(assert (not (= (_ bv7 8) x42)))
(assert (not (= (_ bv7 8) x50)))
(assert (not (= (_ bv7 8) x51)))
(assert (not (= (_ bv7 8) (_ bv3 8))))
(assert (not (= x41 x42)))
(assert (not (= x41 x50)))
(assert (not (= x41 x51)))
(assert (not (= x41 (_ bv3 8))))
(assert (not (= x42 x50)))
(assert (not (= x42 x51)))
(assert (not (= x42 (_ bv3 8))))
(assert (not (= x50 x51)))
(assert (not (= x50 (_ bv3 8))))
(assert (not (= x51 (_ bv3 8))))
(assert (not (= (_ bv6 8) x34)))
(assert (not (= (_ bv6 8) (_ bv4 8))))
(assert (not (= (_ bv6 8) (_ bv5 8))))
(assert (not (= (_ bv6 8) (_ bv2 8))))
(assert (not (= (_ bv6 8) x45)))
(assert (not (= (_ bv6 8) x53)))
(assert (not (= (_ bv6 8) x54)))
(assert (not (= (_ bv6 8) x55)))
(assert (not (= x34 (_ bv4 8))))
(assert (not (= x34 (_ bv5 8))))
(assert (not (= x34 (_ bv2 8))))
(assert (not (= x34 x45)))
(assert (not (= x34 x53)))
(assert (not (= x34 x54)))
(assert (not (= x34 x55)))
(assert (not (= (_ bv4 8) (_ bv5 8))))
(assert (not (= (_ bv4 8) (_ bv2 8))))
(assert (not (= (_ bv4 8) x45)))
(assert (not (= (_ bv4 8) x53)))
(assert (not (= (_ bv4 8) x54)))
(assert (not (= (_ bv4 8) x55)))
(assert (not (= (_ bv5 8) (_ bv2 8))))
(assert (not (= (_ bv5 8) x45)))
(assert (not (= (_ bv5 8) x53)))
(assert (not (= (_ bv5 8) x54)))
(assert (not (= (_ bv5 8) x55)))
(assert (not (= (_ bv2 8) x45)))
(assert (not (= (_ bv2 8) x53)))
(assert (not (= (_ bv2 8) x54)))
(assert (not (= (_ bv2 8) x55)))
(assert (not (= x45 x53)))
(assert (not (= x45 x54)))
(assert (not (= x45 x55)))
(assert (not (= x53 x54)))
(assert (not (= x53 x55)))
(assert (not (= x54 x55)))
(assert (not (= (_ bv9 8) x37)))
(assert (not (= (_ bv9 8) x38)))
(assert (not (= (_ bv9 8) x46)))
(assert (not (= (_ bv9 8) x47)))
(assert (not (= (_ bv9 8) x48)))
(assert (not (= (_ bv9 8) (_ bv1 8))))
(assert (not (= (_ bv9 8) (_ bv2 8))))
(assert (not (= (_ bv9 8) x58)))
(assert (not (= x37 x38)))
(assert (not (= x37 x46)))
(assert (not (= x37 x47)))
(assert (not (= x37 x48)))
(assert (not (= x37 (_ bv1 8))))
(assert (not (= x37 (_ bv2 8))))
(assert (not (= x37 x58)))
(assert (not (= x38 x46)))
(assert (not (= x38 x47)))
(assert (not (= x38 x48)))
(assert (not (= x38 (_ bv1 8))))
(assert (not (= x38 (_ bv2 8))))
(assert (not (= x38 x58)))
(assert (not (= x46 x47)))
(assert (not (= x46 x48)))
(assert (not (= x46 (_ bv1 8))))
(assert (not (= x46 (_ bv2 8))))
(assert (not (= x46 x58)))
(assert (not (= x47 x48)))
(assert (not (= x47 (_ bv1 8))))
(assert (not (= x47 (_ bv2 8))))
(assert (not (= x47 x58)))
(assert (not (= x48 (_ bv1 8))))
(assert (not (= x48 (_ bv2 8))))
(assert (not (= x48 x58)))
(assert (not (= (_ bv1 8) (_ bv2 8))))
(assert (not (= (_ bv1 8) x58)))
(assert (not (= (_ bv2 8) x58)))
(assert (not (= (_ bv8 8) (_ bv1 8))))
(assert (not (= (_ bv8 8) x62)))
(assert (not (= (_ bv8 8) x70)))
(assert (not (= (_ bv8 8) x71)))
(assert (not (= (_ bv8 8) (_ bv5 8))))
(assert (not (= (_ bv8 8) x80)))
(assert (not (= (_ bv8 8) x81)))
(assert (not (= (_ bv8 8) (_ bv4 8))))
(assert (not (= (_ bv1 8) x62)))
(assert (not (= (_ bv1 8) x70)))
(assert (not (= (_ bv1 8) x71)))
(assert (not (= (_ bv1 8) (_ bv5 8))))
(assert (not (= (_ bv1 8) x80)))
(assert (not (= (_ bv1 8) x81)))
(assert (not (= (_ bv1 8) (_ bv4 8))))
(assert (not (= x62 x70)))
(assert (not (= x62 x71)))
(assert (not (= x62 (_ bv5 8))))
(assert (not (= x62 x80)))
(assert (not (= x62 x81)))
(assert (not (= x62 (_ bv4 8))))
(assert (not (= x70 x71)))
(assert (not (= x70 (_ bv5 8))))
(assert (not (= x70 x80)))
(assert (not (= x70 x81)))
(assert (not (= x70 (_ bv4 8))))
(assert (not (= x71 (_ bv5 8))))
(assert (not (= x71 x80)))
(assert (not (= x71 x81)))
(assert (not (= x71 (_ bv4 8))))
(assert (not (= (_ bv5 8) x80)))
(assert (not (= (_ bv5 8) x81)))
(assert (not (= (_ bv5 8) (_ bv4 8))))
(assert (not (= x80 x81)))
(assert (not (= x80 (_ bv4 8))))
(assert (not (= x81 (_ bv4 8))))
(assert (not (= x63 (_ bv7 8))))
(assert (not (= x63 x65)))
(assert (not (= x63 x73)))
(assert (not (= x63 (_ bv1 8))))
(assert (not (= x63 x75)))
(assert (not (= x63 x83)))
(assert (not (= x63 (_ bv9 8))))
(assert (not (= x63 (_ bv5 8))))
(assert (not (= (_ bv7 8) x65)))
(assert (not (= (_ bv7 8) x73)))
(assert (not (= (_ bv7 8) (_ bv1 8))))
(assert (not (= (_ bv7 8) x75)))
(assert (not (= (_ bv7 8) x83)))
(assert (not (= (_ bv7 8) (_ bv9 8))))
(assert (not (= (_ bv7 8) (_ bv5 8))))
(assert (not (= x65 x73)))
(assert (not (= x65 (_ bv1 8))))
(assert (not (= x65 x75)))
(assert (not (= x65 x83)))
(assert (not (= x65 (_ bv9 8))))
(assert (not (= x65 (_ bv5 8))))
(assert (not (= x73 (_ bv1 8))))
(assert (not (= x73 x75)))
(assert (not (= x73 x83)))
(assert (not (= x73 (_ bv9 8))))
(assert (not (= x73 (_ bv5 8))))
(assert (not (= (_ bv1 8) x75)))
(assert (not (= (_ bv1 8) x83)))
(assert (not (= (_ bv1 8) (_ bv9 8))))
(assert (not (= (_ bv1 8) (_ bv5 8))))
(assert (not (= x75 x83)))
(assert (not (= x75 (_ bv9 8))))
(assert (not (= x75 (_ bv5 8))))
(assert (not (= x83 (_ bv9 8))))
(assert (not (= x83 (_ bv5 8))))
(assert (not (= (_ bv9 8) (_ bv5 8))))
(assert (not (= x66 x67)))
(assert (not (= x66 (_ bv3 8))))
(assert (not (= x66 x76)))
(assert (not (= x66 (_ bv7 8))))
(assert (not (= x66 x78)))
(assert (not (= x66 x86)))
(assert (not (= x66 x87)))
(assert (not (= x66 (_ bv8 8))))
(assert (not (= x67 (_ bv3 8))))
(assert (not (= x67 x76)))
(assert (not (= x67 (_ bv7 8))))
(assert (not (= x67 x78)))
(assert (not (= x67 x86)))
(assert (not (= x67 x87)))
(assert (not (= x67 (_ bv8 8))))
(assert (not (= (_ bv3 8) x76)))
(assert (not (= (_ bv3 8) (_ bv7 8))))
(assert (not (= (_ bv3 8) x78)))
(assert (not (= (_ bv3 8) x86)))
(assert (not (= (_ bv3 8) x87)))
(assert (not (= (_ bv3 8) (_ bv8 8))))
(assert (not (= x76 (_ bv7 8))))
(assert (not (= x76 x78)))
(assert (not (= x76 x86)))
(assert (not (= x76 x87)))
(assert (not (= x76 (_ bv8 8))))
(assert (not (= (_ bv7 8) x78)))
(assert (not (= (_ bv7 8) x86)))
(assert (not (= (_ bv7 8) x87)))
(assert (not (= (_ bv7 8) (_ bv8 8))))
(assert (not (= x78 x86)))
(assert (not (= x78 x87)))
(assert (not (= x78 (_ bv8 8))))
(assert (not (= x86 x87)))
(assert (not (= x86 (_ bv8 8))))
(assert (not (= x87 (_ bv8 8))))
(check-sat)
(exit)
